Data path: /scratch/opt/lxu/CFLG/benchmarks/tree_A
Instance: treeA.200.30
Result path: /scratch/opt/lxu/CFLG/results/tree_A
Solver: Gurobi
Time limit: 7200
Formulation: LEFPAV
Cover: Small
julia --project=. src/main.jl /scratch/opt/lxu/CFLG/benchmarks/tree_A treeA.200.30 /scratch/opt/lxu/CFLG/results/tree_A Gurobi 7200 LEFPAV Small
The latest version of Julia in the `release` channel is 1.11.5+0.x64.linux.gnu. You currently have `1.11.4+0.x64.linux.gnu` installed. Run:

  juliaup update

in your terminal shell to install Julia 1.11.5+0.x64.linux.gnu and update the `release` channel to that version.
/scratch/opt/lxu/CFLG/benchmarks/tree_A Gurobi 7200.0 /scratch/opt/lxu/CFLG/results/tree_A treeA.200.30 LEFPAV Small
/scratch/opt/lxu/CFLG/benchmarks/tree_A/treeA.200.30

 read graph
data loaded


after absorb:133 200

max_piece:20
problem_graph/original graph: node: 133/200 edge: 162/229 dlt: 0.3764212876368422 break_avg_len: 2.1284067868848613 break_max_len: 7.205258347516162Vbar/V, Ebar/E(73, 133, 102, 162)
Set parameter TokenServer to value "solice01.zib.de"
Set parameter Threads to value 1
Set parameter OutputFlag to value 1
Gurobi Optimizer version 12.0.1 build v12.0.1rc0 (linux64 - "Debian GNU/Linux 12 (bookworm)")

CPU model: Intel(R) Xeon(R) Gold 5222 CPU @ 3.80GHz, instruction set [SSE2|AVX|AVX2|AVX512]
Thread count: 8 physical cores, 16 logical processors, using up to 1 threads

Non-default parameters:
Threads  1

Optimize a model with 267 rows, 444 columns and 740 nonzeros
Model fingerprint: 0xb83c52cf
Coefficient statistics:
  Matrix range     [1e+00, 1e+00]
  Objective range  [1e+00, 1e+00]
  Bounds range     [1e+00, 1e+00]
  RHS range        [1e+00, 1e+00]
Presolve removed 267 rows and 444 columns
Presolve time: 0.00s
Presolve: All rows and columns removed
Iteration    Objective       Primal Inf.    Dual Inf.      Time
       0    4.6000000e+01   0.000000e+00   0.000000e+00      0s

Solved in 0 iterations and 0.00 seconds (0.00 work units)
Optimal objective  4.600000000e+01

User-callback calls 35, time in user-callback 0.00 sec
elapsed CPU time: 1.051851 seconds
Set parameter TokenServer to value "solice01.zib.de"
Set parameter Threads to value 1
Set parameter OutputFlag to value 1
Set parameter MIPGap to value 0.0001
Set parameter MIPGapAbs to value 0.999998
Set parameter TimeLimit to value 7198.948149

 more cuts: false 0.3764212876368422 false
is_attach:trueformulation:LEFPAV0 148 0
Set parameter PreCrush to value 1

 model loaded

Gurobi Optimizer version 12.0.1 build v12.0.1rc0 (linux64 - "Debian GNU/Linux 12 (bookworm)")

CPU model: Intel(R) Xeon(R) Gold 5222 CPU @ 3.80GHz, instruction set [SSE2|AVX|AVX2|AVX512]
Thread count: 8 physical cores, 16 logical processors, using up to 1 threads

Non-default parameters:
TimeLimit  7198.948149
MIPGapAbs  0.999998
PreCrush  1
Threads  1

Optimize a model with 1784 rows, 1357 columns and 4321 nonzeros
Model fingerprint: 0xd240f324
Variable types: 415 continuous, 942 integer (942 binary)
Coefficient statistics:
  Matrix range     [5e-04, 7e+00]
  Objective range  [1e+00, 1e+00]
  Bounds range     [5e-04, 7e+00]
  RHS range        [1e-06, 8e+00]
Presolve removed 1784 rows and 1357 columns
Presolve time: 0.00s
Presolve: All rows and columns removed

Explored 0 nodes (0 simplex iterations) in 0.00 seconds (0.00 work units)
Thread count was 1 (of 16 available processors)

Solution count 1: 298 

Optimal solution found (tolerance 1.00e-04)
Best objective 2.980000000000e+02, best bound 2.980000000000e+02, gap 0.0000%

User-callback calls 501, time in user-callback 0.64 sec

 sepatime0 502 0
298.0Stat(MathOptInterface.OPTIMAL, 298.0, 298.0, 0.0, 0.0, 1.051851, 0.0025811195373535156, 0, Main.CFLG.LEFPAV, "", #undef)
